Route #1: 75 4 68 6 51 3 44 32 9 39 72 58
Route #2: 53 14 59 11 66 65 38 10
Route #3: 31 55 25 50 18 24 49 23 56 41 64 42 43
Route #4: 16 63 33 73 1 22 61 28 62 2 74 30
Route #5: 48 47 21 69 36 71 60 70 20 37 15 57 5 29
Route #6: 45 27 52 13 54 19 35 7 8 46 34 67
Route #7: 26 12 40 17
Cost 743